400
[81,82,84,85,86,88,90,92,96,97,99,100,101,102,104,105,106,107,108,109,111,114,118,119,120,122,123,124,125,126,127,132,134,135,136,139,140,141,143,145,146,150,153,154,156,158,159,160,162,164,168,170,172,173,175,176,177,178,180,183,184,186,189,190,193,195,196,198,199,200,201,202,203,205,207,208,209,211,212,213,214,217,219,220,224,229,233,235,238,240,243,244,245,247,248,251,253,257,259,260,262,263,264,266,267,269,271,273,275,277,278,279,280,281,282,283,287,288,289,290,291,293,294,296,298,300,303,304,305,308,309,312,315,316,318,319,320]
[1,2,3,1,1,2,1,1,1,1,1,2,1,1,2,3,1,2,2,1,1,1,1,2,2,1,3,1,2,1,1,1,1,2,1,4,1,1,1,2,3,1,1,1,2,1,1,1,2,1,2,1,2,1,1,2,2,1,1,1,1,1,1,2,2,2,2,1,2,1,1,2,3,1,2,2,2,1,2,1,2,1,2,1,3,1,1,1,2,1,1,2,3,1,2,1,1,1,2,1,3,1,1,1,1,1,1,1,1,1,1,2,1,2,1,1,2,2,1,1,1,1,1,1,2,1,2,2,1,2,1,2,1,1,1,2,2]
